data;
param p:=6;
param q:=3;
param v:=1 5000 2 4000 3 3500;
param d:=1 24 2 6 3 1 4 2 5 0.5 6 1.5;
param a:    1 2 3 := 
          1 6 4 0.5
          2 1 2 0.75
          3 -1 1 0
          4 0 1 0
          5 0 0 1
          6 0 0 1;

solve;
display L,x;